Route 1: 0 13 96 22 62 39 54 19 14 0
Route 2: 0 74 28 41 15 76 87 38 0
Route 3: 0 82 65 30 57 50 32 0
Route 4: 0 55 95 20 37 3 71 80 68 16 78 25 66 0
Route 5: 0 70 84 59 89 83 91 93 98 61 24 0
Route 6: 0 29 21 86 46 35 9 75 97 0
Route 7: 0 31 1 51 23 5 11 33 26 0
Route 8: 0 69 77 92 36 40 79 8 0
Route 9: 0 85 18 100 47 52 48 99 90 67 60 7 81 0
Route 10: 0 63 53 6 27 17 45 0
Route 11: 0 56 2 72 44 88 4 49 43 58 12 0
Route 12: 0 10 42 73 94 34 64 0
